(set-info :smt-lib-version 2.6)
(set-info :category "crafted")
(set-logic QF_FFA)
(define-sort FF0 () (_ FiniteField 52435875175126190479447740508185965837690552500527637822603658699938581184513))
(declare-fun i () Bool)
(declare-fun g () Bool)
(declare-fun d () Bool)
(declare-fun a () Bool)
(declare-fun h () Bool)
(declare-fun b () Bool)
(declare-fun e () Bool)
(declare-fun c () Bool)
(declare-fun f () Bool)
(declare-fun j () Bool)
(declare-fun return_n0 () FF0)
(declare-fun mul_n11 () FF0)
(declare-fun i_n5 () FF0)
(declare-fun g_n9 () FF0)
(declare-fun mul_n47 () FF0)
(declare-fun mul_n46 () FF0)
(declare-fun mul_n19 () FF0)
(declare-fun c_n6 () FF0)
(declare-fun mul_n12 () FF0)
(declare-fun mul_n45 () FF0)
(declare-fun mul_n44 () FF0)
(declare-fun mul_n18 () FF0)
(declare-fun mul_n43 () FF0)
(declare-fun mul_n42 () FF0)
(declare-fun mul_n13 () FF0)
(declare-fun mul_n41 () FF0)
(declare-fun h_n7 () FF0)
(declare-fun mul_n40 () FF0)
(declare-fun mul_n39 () FF0)
(declare-fun mul_n34 () FF0)
(declare-fun mul_n38 () FF0)
(declare-fun mul_n14 () FF0)
(declare-fun mul_n37 () FF0)
(declare-fun mul_n36 () FF0)
(declare-fun mul_n30 () FF0)
(declare-fun mul_n35 () FF0)
(declare-fun mul_n29 () FF0)
(declare-fun mul_n33 () FF0)
(declare-fun mul_n32 () FF0)
(declare-fun mul_n31 () FF0)
(declare-fun j_n3 () FF0)
(declare-fun mul_n20 () FF0)
(declare-fun f_n1 () FF0)
(declare-fun mul_n28 () FF0)
(declare-fun a_n10 () FF0)
(declare-fun mul_n27 () FF0)
(declare-fun mul_n26 () FF0)
(declare-fun mul_n23 () FF0)
(declare-fun mul_n25 () FF0)
(declare-fun mul_n24 () FF0)
(declare-fun mul_n22 () FF0)
(declare-fun mul_n21 () FF0)
(declare-fun d_n4 () FF0)
(declare-fun mul_n17 () FF0)
(declare-fun mul_n16 () FF0)
(declare-fun b_n8 () FF0)
(declare-fun mul_n15 () FF0)
(declare-fun e_n2 () FF0)
(assert 
  (let ((let0 i))
  (let ((let1 g))
  (let ((let2 (= let1 let0)))
  (let ((let3 d))
  (let ((let4 a))
  (let ((let5 (and let4 let3)))
  (let ((let6 h))
  (let ((let7 b))
  (let ((let8 e))
  (let ((let9 (or let8 let7)))
  (let ((let10 (=> let8 let9)))
  (let ((let11 (and let10 let3 let7 let2 let6)))
  (let ((let12 c))
  (let ((let13 (not let12)))
  (let ((let14 (ite let4 let3 let13)))
  (let ((let15 (not let1)))
  (let ((let16 f))
  (let ((let17 j))
  (let ((let18 (ite let6 let16 let17)))
  (let ((let19 (and let13 let9 let5 let18)))
  (let ((let20 (or let12 let19 let15 let19 let16 let4 let15)))
  (let ((let21 (ite let17 let16 let11)))
  (let ((let22 (and let18 let21 let20 let0 let1)))
  (let ((let23 (or let22 let20 let21 let12 let10 let22 let2 let6 let9 let14 let11 let5 let5)))
  (let ((let24 (or let14 let23 let2)))
  (let ((let25 return_n0))
  (let ((let26 (as ff1 FF0)))
  (let ((let27 (= let26 let25)))
  (let ((let28 (= let27 let24)))
  (let ((let29 (as ff0 FF0)))
  (let ((let30 (= let29 let25)))
  (let ((let31 (or let27 let30)))
  (let ((let32 (and let31 let28)))
  (let ((let33 (as ff52435875175126190479447740508185965837690552500527637822603658699938581184512 FF0)))
  (let ((let34 (ff.mul let25 let33)))
  (let ((let35 (ff.add let34 let26)))
  (let ((let36 mul_n11))
  (let ((let37 (ff.mul let36 let33)))
  (let ((let38 i_n5))
  (let ((let39 g_n9))
  (let ((let40 (ff.add let39 let38 let37)))
  (let ((let41 mul_n47))
  (let ((let42 (ff.mul let41 let40)))
  (let ((let43 (= let42 let35)))
  (let ((let44 mul_n46))
  (let ((let45 mul_n19))
  (let ((let46 (ff.mul let45 let33)))
  (let ((let47 c_n6))
  (let ((let48 (ff.add let47 let46)))
  (let ((let49 (ff.mul let48 let44)))
  (let ((let50 (= let49 let41)))
  (let ((let51 mul_n12))
  (let ((let52 (ff.mul let51 let33)))
  (let ((let53 (ff.add let52 let26)))
  (let ((let54 mul_n45))
  (let ((let55 (ff.mul let54 let53)))
  (let ((let56 (= let55 let44)))
  (let ((let57 mul_n44))
  (let ((let58 (ff.mul let57 let53)))
  (let ((let59 (= let58 let54)))
  (let ((let60 mul_n18))
  (let ((let61 (ff.mul let60 let33)))
  (let ((let62 (ff.add let61 let26)))
  (let ((let63 mul_n43))
  (let ((let64 (ff.mul let63 let62)))
  (let ((let65 (= let64 let57)))
  (let ((let66 mul_n42))
  (let ((let67 (ff.mul let66 let48)))
  (let ((let68 (= let67 let63)))
  (let ((let69 mul_n13))
  (let ((let70 mul_n41))
  (let ((let71 (ff.mul let70 let69)))
  (let ((let72 (= let71 let66)))
  (let ((let73 h_n7))
  (let ((let74 (ff.mul let73 let33)))
  (let ((let75 (ff.add let74 let26)))
  (let ((let76 mul_n40))
  (let ((let77 (ff.mul let76 let75)))
  (let ((let78 (= let77 let70)))
  (let ((let79 mul_n39))
  (let ((let80 (ff.mul let79 let40)))
  (let ((let81 (= let80 let76)))
  (let ((let82 mul_n34))
  (let ((let83 (ff.mul let82 let33)))
  (let ((let84 (ff.add let83 let26)))
  (let ((let85 mul_n38))
  (let ((let86 (ff.mul let85 let84)))
  (let ((let87 (= let86 let79)))
  (let ((let88 mul_n14))
  (let ((let89 mul_n37))
  (let ((let90 (ff.mul let89 let88)))
  (let ((let91 (= let90 let85)))
  (let ((let92 (ff.mul let47 let33)))
  (let ((let93 (ff.add let92 let26)))
  (let ((let94 mul_n36))
  (let ((let95 (ff.mul let94 let93)))
  (let ((let96 (= let95 let89)))
  (let ((let97 mul_n30))
  (let ((let98 (ff.mul let97 let33)))
  (let ((let99 (ff.add let98 let61 let26)))
  (let ((let100 mul_n35))
  (let ((let101 (ff.mul let100 let99)))
  (let ((let102 (= let101 let94)))
  (let ((let103 mul_n29))
  (let ((let104 (ff.mul let84 let103)))
  (let ((let105 (= let104 let100)))
  (let ((let106 mul_n33))
  (let ((let107 (ff.mul let106 let39)))
  (let ((let108 (= let107 let82)))
  (let ((let109 mul_n32))
  (let ((let110 (ff.mul let109 let38)))
  (let ((let111 (= let110 let106)))
  (let ((let112 (ff.mul let103 let33)))
  (let ((let113 (ff.add let112 let26)))
  (let ((let114 mul_n31))
  (let ((let115 (ff.mul let114 let113)))
  (let ((let116 (= let115 let109)))
  (let ((let117 (ff.add let97 let60)))
  (let ((let118 j_n3))
  (let ((let119 mul_n20))
  (let ((let120 (ff.add let119 let118)))
  (let ((let121 (ff.mul let120 let117)))
  (let ((let122 (= let121 let114)))
  (let ((let123 f_n1))
  (let ((let124 (ff.add let123 let61)))
  (let ((let125 (ff.mul let118 let124)))
  (let ((let126 (= let125 let97)))
  (let ((let127 mul_n28))
  (let ((let128 a_n10))
  (let ((let129 (ff.mul let128 let33)))
  (let ((let130 (ff.add let129 let26)))
  (let ((let131 mul_n27))
  (let ((let132 (ff.mul let131 let130)))
  (let ((let133 (= let132 let127)))
  (let ((let134 (ff.mul let123 let33)))
  (let ((let135 (ff.add let134 let26)))
  (let ((let136 mul_n26))
  (let ((let137 (ff.mul let136 let135)))
  (let ((let138 (= let137 let131)))
  (let ((let139 mul_n23))
  (let ((let140 (ff.mul let139 let33)))
  (let ((let141 (ff.add let140 let26)))
  (let ((let142 mul_n25))
  (let ((let143 (ff.mul let142 let141)))
  (let ((let144 (= let143 let136)))
  (let ((let145 mul_n24))
  (let ((let146 (ff.mul let145 let39)))
  (let ((let147 (= let146 let142)))
  (let ((let148 (ff.mul let93 let141)))
  (let ((let149 (= let148 let145)))
  (let ((let150 mul_n22))
  (let ((let151 (ff.mul let150 let120)))
  (let ((let152 (= let151 let139)))
  (let ((let153 mul_n21))
  (let ((let154 (ff.mul let153 let51)))
  (let ((let155 (= let154 let150)))
  (let ((let156 (ff.mul let69 let33)))
  (let ((let157 (ff.add let156 let26)))
  (let ((let158 (ff.mul let93 let157)))
  (let ((let159 (= let158 let153)))
  (let ((let160 (ff.mul let118 let33)))
  (let ((let161 (ff.add let123 let160)))
  (let ((let162 (ff.mul let73 let161)))
  (let ((let163 (= let162 let119)))
  (let ((let164 d_n4))
  (let ((let165 (ff.add let164 let47 let33)))
  (let ((let166 (ff.mul let128 let165)))
  (let ((let167 (= let166 let45)))
  (let ((let168 mul_n17))
  (let ((let169 (ff.mul let168 let73)))
  (let ((let170 (= let169 let60)))
  (let ((let171 (ff.mul let38 let33)))
  (let ((let172 (ff.mul let39 let33)))
  (let ((let173 (ff.add let172 let171 let36 let26)))
  (let ((let174 mul_n16))
  (let ((let175 (ff.mul let174 let173)))
  (let ((let176 (= let175 let168)))
  (let ((let177 b_n8))
  (let ((let178 mul_n15))
  (let ((let179 (ff.mul let178 let177)))
  (let ((let180 (= let179 let174)))
  (let ((let181 (ff.mul let88 let33)))
  (let ((let182 (ff.add let181 let26)))
  (let ((let183 (ff.mul let182 let164)))
  (let ((let184 (= let183 let178)))
  (let ((let185 e_n2))
  (let ((let186 (ff.mul let185 let69)))
  (let ((let187 (= let186 let88)))
  (let ((let188 (ff.mul let177 let33)))
  (let ((let189 (ff.add let188 let26)))
  (let ((let190 (ff.mul let185 let33)))
  (let ((let191 (ff.add let190 let26)))
  (let ((let192 (ff.mul let191 let189)))
  (let ((let193 (= let192 let69)))
  (let ((let194 (ff.mul let128 let164)))
  (let ((let195 (= let194 let51)))
  (let ((let196 (as ff2 FF0)))
  (let ((let197 (ff.mul let39 let196)))
  (let ((let198 (ff.mul let197 let38)))
  (let ((let199 (= let198 let36)))
  (let ((let200 (and let199 let195 let193 let187 let184 let180 let176 let170 let167 let163 let159 let155 let152 let149 let147 let144 let138 let133 let126 let122 let116 let111 let108 let105 let102 let96 let91 let87 let81 let78 let72 let68 let65 let59 let56 let50 let43)))
  (let ((let201 (ite let16 let26 let29)))
  (let ((let202 (= let123 let201)))
  (let ((let203 (ite let17 let26 let29)))
  (let ((let204 (= let118 let203)))
  (let ((let205 (ite let3 let26 let29)))
  (let ((let206 (= let164 let205)))
  (let ((let207 (ite let12 let26 let29)))
  (let ((let208 (= let47 let207)))
  (let ((let209 (ite let8 let26 let29)))
  (let ((let210 (= let185 let209)))
  (let ((let211 (ite let6 let26 let29)))
  (let ((let212 (= let73 let211)))
  (let ((let213 (ite let7 let26 let29)))
  (let ((let214 (= let177 let213)))
  (let ((let215 (ite let4 let26 let29)))
  (let ((let216 (= let128 let215)))
  (let ((let217 (ite let0 let26 let29)))
  (let ((let218 (= let38 let217)))
  (let ((let219 (ite let1 let26 let29)))
  (let ((let220 (= let39 let219)))
  (let ((let221 (and let220 let218 let216 let214 let212 let210 let208 let206 let204 let202)))
  (let ((let222 (and let221 let200)))
  (let ((let223 (=> let222 let32)))
  (let ((let224 (not let223)))
  let224
)))))))))))))))))))))))))))))))))))))))))))))))))))))))))))))))))))))))))))))))))))))))))))))))))))))))))))))))))))))))))))))))))))))))))))))))))))))))))))))))))))))))))))))))))))))))))))))))))))))))))))))))))))))))))))))))))
)
(check-sat)
